# Solution for model obj
# Objective value = 11
x05 0
x16 0
x24 0
x36 1
x41 1
x50 1
x65 0
x77 0
x85 1
x92 0
x106 0
x07 0
x15 0
x20 0
x35 0
x46 0
x57 0
x67 1
x70 0
x87 0
x96 0
x104 1
x06 0
x10 1
x27 0
x37 0
x47 0
x54 0
x66 0
x74 0
x86 0
x95 0
x100 0
x08 1
x14 0
x22 1
x30 0
x45 0
x52 0
x62 0
x72 0
x82 0
x98 0
x108 0
x03 0
x17 0
x28 0
x38 0
x40 0
x58 0
x68 0
x78 1
x88 0
x93 1
x103 0
